This is Ipopt version 3.14.11, running with linear solver MUMPS 5.4.1.

Number of nonzeros in equality constraint Jacobian...:   913136
Number of nonzeros in inequality constraint Jacobian.:        0
Number of nonzeros in Lagrangian Hessian.............:        0

Total number of variables............................:     1052
                     variables with only lower bounds:        1
                variables with lower and upper bounds:      211
                     variables with only upper bounds:        0
Total number of equality constraints.................:      868
Total number of inequality constraints...............:        0
        inequality constraints with only lower bounds:        0
   inequality constraints with lower and upper bounds:        0
        inequality constraints with only upper bounds:        0

iter    objective    inf_pr   inf_du lg(mu)  ||d||  lg(rg) alpha_du alpha_pr  ls
   0  0.0000000e+00 1.12e+01 2.42e-01   0.0 0.00e+00    -  0.00e+00 0.00e+00   0
   1  7.2892122e+00 2.68e+01 3.24e+02  -0.2 7.04e+00    -  6.32e-01 9.73e-01h  1
   2  4.3064053e+01 9.11e+00 1.40e+02   0.1 4.25e+00    -  6.38e-01 1.00e+00h  1
   3  8.3011324e+01 4.21e+00 2.37e+02   0.4 4.42e+00    -  5.63e-01 7.95e-01h  1
   4  1.0121105e+02 3.15e+00 2.76e+02  -0.5 6.92e+00    -  5.37e-01 2.61e-01h  1
   5  1.1738392e+02 2.02e+00 4.26e+02  -0.0 9.84e+00    -  9.84e-01 3.48e-01h  1
   6  1.2582679e+02 1.97e+00 7.12e+02  -0.1 7.06e+00    -  9.97e-01 5.76e-01h  1
   7  8.0843935e+01 5.67e-01 4.94e+02   0.2 2.44e+00    -  9.94e-01 1.00e+00f  1
   8  5.0518501e+01 1.04e+00 2.63e+01   0.1 1.15e+00    -  9.80e-01 1.00e+00f  1
   9  3.8319187e+01 8.21e-01 1.92e+01  -0.2 9.38e-01    -  9.88e-01 1.00e+00f  1
iter    objective    inf_pr   inf_du lg(mu)  ||d||  lg(rg) alpha_du alpha_pr  ls
  10  2.3113999e+01 4.65e+00 9.62e+01  -1.7 1.45e+00    -  6.69e-01 1.00e+00f  1
  11  2.3467023e+01 2.05e+00 3.46e+00  -1.1 6.70e-01    -  9.98e-01 1.00e+00h  1
  12  2.8912863e+01 4.32e-02 8.05e+00  -2.2 6.80e-01    -  9.95e-01 1.00e+00h  1
  13  2.8061358e+01 8.56e-01 9.67e+00  -2.6 1.26e+00    -  1.00e+00 1.00e+00f  1
  14  2.6774944e+01 1.57e+00 9.80e+00  -2.3 3.45e+00    -  6.26e-01 1.00e+00H  1
  15  2.7149236e+01 7.64e-02 6.08e+00  -2.6 1.89e+00    -  1.00e+00 1.00e+00H  1
  16  2.6292870e+01 4.67e-01 3.88e+00  -3.2 6.44e-01    -  1.00e+00 1.00e+00h  1
  17  2.6376786e+01 1.06e-01 1.33e+00  -3.8 9.25e-01    -  1.00e+00 1.00e+00h  1
  18  2.6575646e+01 1.50e-02 7.42e-01  -4.8 2.03e-01    -  1.00e+00 1.00e+00h  1
  19  2.6577805e+01 4.42e-03 9.06e-01  -6.2 7.82e-02    -  1.00e+00 1.00e+00h  1
iter    objective    inf_pr   inf_du lg(mu)  ||d||  lg(rg) alpha_du alpha_pr  ls
  20  2.6582480e+01 3.05e-03 1.69e-01  -7.5 1.24e-01    -  1.00e+00 1.00e+00h  1
  21  2.6581248e+01 4.01e-04 1.49e-01  -9.2 3.04e-02    -  1.00e+00 1.00e+00h  1
  22  2.6581162e+01 1.51e-03 3.36e-01 -10.8 4.39e-02    -  1.00e+00 1.00e+00h  1
  23  2.6582167e+01 8.40e-05 1.16e+00 -11.0 1.02e-01    -  1.00e+00 1.00e+00H  1
  24  2.6588663e+01 2.02e-04 2.49e+00 -11.0 1.23e-01    -  1.00e+00 1.00e+00H  1
  25  2.6582995e+01 1.44e-02 2.20e-01 -11.0 1.95e-01    -  1.00e+00 1.00e+00h  1
  26  2.6581164e+01 5.26e-03 8.14e-01 -11.0 1.54e-01    -  1.00e+00 1.00e+00h  1
  27  2.6576605e+01 2.67e-03 6.67e-02 -11.0 9.97e-02    -  1.00e+00 1.00e+00h  1
  28  2.6578660e+01 1.83e-04 1.03e-01 -11.0 2.84e-02    -  1.00e+00 1.00e+00h  1
  29  2.6578524e+01 3.23e-04 1.16e-01 -11.0 1.77e-02    -  1.00e+00 1.00e+00h  1
iter    objective    inf_pr   inf_du lg(mu)  ||d||  lg(rg) alpha_du alpha_pr  ls
  30  2.6577784e+01 4.19e-04 7.87e-01 -11.0 9.38e-02    -  1.00e+00 1.00e+00H  1
  31  2.6577749e+01 2.39e-04 9.19e-01 -11.0 9.08e-01    -  1.00e+00 1.56e-02h  7
  32  2.6578394e+01 2.09e-05 9.14e-01 -11.0 7.88e-02    -  1.00e+00 1.00e+00H  1
  33  2.6588530e+01 4.21e-06 2.87e+00 -11.0 1.78e-01    -  1.00e+00 1.00e+00H  1
  34  2.6577302e+01 1.85e-02 2.43e-01 -11.0 1.47e-01    -  1.00e+00 1.00e+00f  1
  35  2.6582438e+01 4.63e-03 9.65e-01 -11.0 1.47e-01    -  1.00e+00 1.00e+00h  1
  36  2.6574396e+01 2.90e-03 9.92e-02 -11.0 1.27e-01    -  1.00e+00 1.00e+00h  1
  37  2.6577501e+01 2.63e-05 3.60e-02 -11.0 4.38e-03    -  1.00e+00 1.00e+00h  1
  38  2.6577823e+01 3.19e-06 2.08e-01 -11.0 2.38e-02    -  1.00e+00 1.00e+00H  1
  39  2.6577360e+01 1.61e-04 6.33e-02 -11.0 2.36e-02    -  1.00e+00 1.00e+00h  1
iter    objective    inf_pr   inf_du lg(mu)  ||d||  lg(rg) alpha_du alpha_pr  ls
  40  2.6577516e+01 1.56e-04 9.63e-02 -11.0 1.79e-02    -  1.00e+00 1.00e+00h  1
  41  2.6577516e+01 6.77e-05 1.42e-01 -11.0 9.82e-03    -  1.00e+00 1.00e+00h  1
  42  2.6577507e+01 1.86e-04 1.84e-01 -11.0 1.78e-02    -  1.00e+00 1.00e+00h  1
  43  2.6577457e+01 1.28e-04 4.91e-03 -11.0 1.45e-02    -  1.00e+00 1.00e+00h  1
  44  2.6577460e+01 1.38e-05 1.62e-02 -11.0 6.18e-03    -  1.00e+00 1.00e+00h  1
  45  2.6577449e+01 4.72e-06 2.50e-02 -11.0 3.49e-03    -  1.00e+00 1.00e+00h  1
  46  2.6577443e+01 9.35e-08 4.73e-04 -11.0 5.84e-03    -  1.00e+00 1.00e+00H  1
  47  2.6578885e+01 2.31e-08 5.42e-03 -11.0 4.21e-02    -  1.00e+00 1.00e+00H  1
  48  2.6577096e+01 1.31e-03 3.20e-02 -11.0 3.45e-02    -  1.00e+00 1.00e+00f  1
  49  2.6577619e+01 2.17e-04 1.37e-01 -11.0 3.02e-02    -  1.00e+00 1.00e+00h  1
iter    objective    inf_pr   inf_du lg(mu)  ||d||  lg(rg) alpha_du alpha_pr  ls
  50  2.6577312e+01 1.51e-04 7.88e-03 -11.0 2.51e-02    -  1.00e+00 1.00e+00h  1
  51  2.6577426e+01 2.36e-06 1.38e-02 -11.0 1.55e-03    -  1.00e+00 1.00e+00h  1
  52  2.6577425e+01 6.35e-07 6.98e-02 -11.0 9.90e-03    -  1.00e+00 1.00e+00H  1
  53  2.6577664e+01 1.17e-07 5.84e-01 -11.0 3.79e-02    -  1.00e+00 1.00e+00H  1
  54  2.6577500e+01 2.27e-04 1.52e-01 -11.0 1.85e-02    -  1.00e+00 1.00e+00h  1
  55  2.6577458e+01 6.15e-04 6.71e-02 -11.0 8.86e-02    -  1.00e+00 2.50e-01h  3
  56  2.6577530e+01 2.53e-04 2.26e-01 -11.0 2.10e-02    -  1.00e+00 1.00e+00h  1
  57  2.6577430e+01 1.52e-05 1.07e-01 -11.0 2.42e-02    -  1.00e+00 1.00e+00H  1
  58  2.6579454e+01 5.32e-10 8.68e-03 -11.0 6.68e-02    -  1.00e+00 1.00e+00H  1
  59  2.6576955e+01 7.48e-04 5.15e-03 -11.0 6.74e-02    -  1.00e+00 1.00e+00f  1
iter    objective    inf_pr   inf_du lg(mu)  ||d||  lg(rg) alpha_du alpha_pr  ls
  60  2.6577420e+01 9.58e-07 3.32e-03 -11.0 1.02e-03    -  1.00e+00 1.00e+00h  1
  61  2.6577420e+01 3.24e-08 1.21e-04 -11.0 1.61e-03    -  1.00e+00 1.00e+00H  1
  62  2.6577430e+01 9.26e-10 4.66e-04 -11.0 7.57e-03    -  1.00e+00 1.00e+00H  1
  63  2.6577414e+01 3.25e-05 3.68e-02 -11.0 5.18e-03    -  1.00e+00 1.00e+00h  1
  64  2.6577430e+01 2.79e-06 6.47e-02 -11.0 1.07e-02    -  1.00e+00 1.00e+00H  1
  65  2.6577431e+01 2.24e-07 3.01e-02 -11.0 9.45e-03    -  1.00e+00 1.00e+00H  1
  66  2.6577426e+01 2.06e-07 6.10e-02 -11.0 8.88e-03    -  1.00e+00 1.00e+00H  1
  67  2.6577421e+01 6.16e-07 7.75e-03 -11.0 6.10e-03    -  1.00e+00 1.00e+00H  1
  68  2.6577711e+01 2.90e-08 2.43e-03 -11.0 2.97e-02    -  1.00e+00 1.00e+00H  1
  69  2.6577423e+01 4.68e-08 4.11e-04 -11.0 3.20e-02    -  1.00e+00 1.00e+00H  1
iter    objective    inf_pr   inf_du lg(mu)  ||d||  lg(rg) alpha_du alpha_pr  ls
  70  2.6578084e+01 7.07e-09 4.99e-03 -11.0 3.21e-02    -  1.00e+00 1.00e+00H  1
  71  2.6577070e+01 2.17e-04 5.60e-03 -11.0 2.92e-02    -  1.00e+00 1.00e+00f  1
  72  2.6577420e+01 4.39e-08 2.03e-03 -11.0 2.03e-04    -  1.00e+00 1.00e+00h  1
  73  2.6577420e+01 4.43e-08 5.81e-06 -11.0 2.02e-04    -  1.00e+00 1.00e+00h  1
  74  2.6577420e+01 1.85e-09 1.57e-05 -11.0 3.47e-04    -  1.00e+00 1.00e+00H  1
  75  2.6577420e+01 5.47e-12 6.47e-05 -11.0 1.56e-03    -  1.00e+00 1.00e+00H  1
  76  2.6577420e+01 1.10e-07 4.86e-03 -11.0 2.61e-03    -  1.00e+00 1.25e-01h  4
  77  2.6577420e+01 2.22e-08 1.07e-04 -11.0 1.50e-03    -  1.00e+00 1.00e+00H  1
  78  2.6577419e+01 2.99e-07 2.12e-04 -11.0 1.05e-03    -  1.00e+00 1.00e+00h  1
  79  2.6577419e+01 5.52e-09 3.75e-06 -11.0 7.32e-05    -  1.00e+00 1.00e+00h  1
iter    objective    inf_pr   inf_du lg(mu)  ||d||  lg(rg) alpha_du alpha_pr  ls
  80  2.6577420e+01 3.68e-11 3.93e-05 -11.0 2.08e-04    -  1.00e+00 1.00e+00H  1
  81  2.6577419e+01 2.35e-08 2.25e-06 -11.0 1.95e-04    -  1.00e+00 1.00e+00h  1
  82  2.6577419e+01 1.47e-09 1.68e-06 -11.0 3.53e-05    -  1.00e+00 1.00e+00h  1
  83  2.6577420e+01 9.40e-12 9.72e-05 -11.0 1.28e-03    -  1.00e+00 1.00e+00H  1
  84  2.6577420e+01 5.33e-07 5.20e-03 -11.0 9.42e-04    -  1.00e+00 1.00e+00h  1
  85  2.6577420e+01 3.80e-12 6.87e-05 -11.0 1.47e-03    -  1.00e+00 1.00e+00H  1
  86  2.6577420e+01 5.13e-08 3.88e-05 -11.0 1.39e-03    -  1.00e+00 1.00e+00H  1
  87  2.6577420e+01 1.83e-07 1.65e-03 -11.0 2.55e-03    -  1.00e+00 2.50e-01h  3
  88  2.6577420e+01 2.21e-08 4.08e-05 -11.0 8.57e-04    -  1.00e+00 1.00e+00H  1
  89  2.6577419e+01 2.76e-08 2.32e-03 -11.0 2.35e-03    -  1.00e+00 1.25e-01h  4
iter    objective    inf_pr   inf_du lg(mu)  ||d||  lg(rg) alpha_du alpha_pr  ls
  90  2.6577419e+01 5.06e-10 5.12e-06 -11.0 3.98e-04    -  1.00e+00 1.00e+00H  1
  91  2.6577419e+01 2.07e-10 1.75e-06 -11.0 3.49e-04    -  1.00e+00 1.00e+00H  1
  92  2.6577420e+01 6.20e-12 6.85e-05 -11.0 5.28e-04    -  1.00e+00 1.00e+00H  1
  93  2.6577419e+01 5.32e-08 5.85e-04 -11.0 5.26e-04    -  1.00e+00 1.00e+00h  1
  94  2.6577419e+01 4.51e-08 1.39e-05 -11.0 1.91e-04    -  1.00e+00 1.00e+00h  1
  95  2.6577419e+01 2.01e-08 3.85e-06 -11.0 1.37e-04    -  1.00e+00 1.00e+00h  1
  96  2.6577420e+01 3.71e-10 3.13e-05 -11.0 2.73e-04    -  1.00e+00 1.00e+00H  1
  97  2.6577419e+01 4.68e-08 5.39e-06 -11.0 2.20e-04    -  1.00e+00 1.00e+00h  1
  98  2.6577419e+01 4.01e-09 7.33e-06 -11.0 1.07e-04    -  1.00e+00 1.00e+00h  1
  99  2.6577419e+01 1.78e-09 6.50e-07 -11.0 6.57e-05    -  1.00e+00 1.00e+00h  1
iter    objective    inf_pr   inf_du lg(mu)  ||d||  lg(rg) alpha_du alpha_pr  ls
 100  2.6577419e+01 6.33e-11 5.93e-07 -11.0 7.71e-06    -  1.00e+00 1.00e+00h  1
 101  2.6577419e+01 2.13e-11 2.53e-06 -11.0 1.32e-04    -  1.00e+00 1.00e+00H  1
 102  2.6577420e+01 1.44e-12 5.04e-05 -11.0 1.38e-03    -  1.00e+00 1.00e+00H  1
 103  2.6577420e+01 2.11e-07 7.73e-03 -11.0 4.54e-04    -  1.00e+00 1.00e+00h  1
 104  2.6577420e+01 1.04e-07 4.52e-05 -11.0 2.17e-03    -  1.00e+00 1.00e+00H  1
 105  2.6577420e+01 1.18e-07 1.99e-03 -11.0 4.56e-03    -  1.00e+00 6.25e-02h  5
 106  2.6577419e+01 6.98e-08 9.27e-07 -11.0 1.43e-03    -  1.00e+00 1.00e+00H  1
 107  2.6577419e+01 7.45e-08 6.99e-06 -11.0 2.14e-04    -  1.00e+00 1.00e+00h  1
 108  2.6577419e+01 1.62e-09 5.93e-06 -11.0 8.25e-05    -  1.00e+00 1.00e+00h  1
 109  2.6577419e+01 1.77e-11 3.39e-06 -11.0 9.02e-05    -  1.00e+00 1.00e+00H  1
iter    objective    inf_pr   inf_du lg(mu)  ||d||  lg(rg) alpha_du alpha_pr  ls
 110  2.6577419e+01 1.12e-11 1.40e-05 -11.0 2.37e-04    -  1.00e+00 1.00e+00H  1
 111  2.6577419e+01 3.70e-11 1.48e-05 -11.0 2.87e-04    -  1.00e+00 1.00e+00H  1
 112  2.6577420e+01 5.62e-12 6.10e-05 -11.0 1.92e-03    -  1.00e+00 1.00e+00H  1
 113  2.6577420e+01 5.62e-12 6.09e-05 -11.0 1.20e-03    -  1.00e+00 9.77e-04h 11
 114  2.6577420e+01 5.62e-12 6.09e-05 -11.0 3.20e-03    -  1.00e+00 4.88e-04h 12
 115  2.6577420e+01 5.62e-12 6.09e-05 -11.0 3.19e-03    -  1.00e+00 1.22e-04h 14
 116  2.6577420e+01 5.62e-12 6.09e-05 -11.0 1.88e-03    -  1.00e+00 2.44e-04h 13
 117  2.6577420e+01 1.28e-07 2.66e-03 -11.0 5.30e-03    -  1.00e+00 6.25e-02h  5
 118  2.6577420e+01 2.21e-07 2.96e-03 -11.0 9.08e-03    -  1.00e+00 3.12e-02h  6
 119  2.6577420e+01 8.55e-07 4.60e-03 -11.0 5.51e-03    -  1.00e+00 1.25e-01h  4
iter    objective    inf_pr   inf_du lg(mu)  ||d||  lg(rg) alpha_du alpha_pr  ls
 120  2.6577420e+01 4.92e-07 9.25e-04 -11.0 9.17e-04    -  1.00e+00 5.00e-01h  2
 121  2.6577419e+01 9.39e-08 1.10e-06 -11.0 3.07e-04    -  1.00e+00 1.00e+00h  1
 122  2.6577419e+01 2.35e-08 2.86e-06 -11.0 1.46e-04    -  1.00e+00 1.00e+00h  1
 123  2.6577419e+01 2.57e-10 1.75e-05 -11.0 1.87e-04    -  1.00e+00 1.00e+00H  1
 124  2.6577419e+01 6.21e-10 3.63e-06 -11.0 1.96e-04    -  1.00e+00 1.00e+00H  1
 125  2.6577420e+01 3.25e-12 1.22e-04 -11.0 2.73e-04    -  1.00e+00 1.00e+00H  1
 126  2.6577419e+01 1.53e-07 6.02e-05 -11.0 2.76e-04    -  1.00e+00 1.00e+00h  1
 127  2.6577419e+01 3.29e-11 4.06e-07 -11.0 5.81e-06    -  1.00e+00 1.00e+00h  1
 128  2.6577419e+01 2.99e-11 3.04e-06 -11.0 1.10e-04    -  1.00e+00 1.00e+00H  1
 129  2.6577419e+01 4.98e-12 5.22e-06 -11.0 2.56e-04    -  1.00e+00 1.00e+00H  1
iter    objective    inf_pr   inf_du lg(mu)  ||d||  lg(rg) alpha_du alpha_pr  ls
 130  2.6577419e+01 7.23e-10 3.84e-06 -11.0 2.09e-04    -  1.00e+00 1.25e-01h  4
 131  2.6577419e+01 3.75e-10 3.16e-06 -11.0 2.68e-04    -  1.00e+00 1.00e+00H  1
 132  2.6577419e+01 8.36e-11 2.04e-05 -11.0 3.00e-04    -  1.00e+00 1.00e+00H  1
 133  2.6577419e+01 3.23e-10 1.56e-06 -11.0 3.78e-04    -  1.00e+00 1.00e+00H  1
 134  2.6577420e+01 3.58e-12 6.45e-05 -11.0 8.69e-04    -  1.00e+00 1.00e+00H  1
 135  2.6577419e+01 6.97e-07 2.01e-04 -11.0 8.91e-04    -  1.00e+00 1.00e+00h  1
 136  2.6577419e+01 1.67e-08 7.97e-06 -11.0 1.20e-04    -  1.00e+00 1.00e+00h  1
 137  2.6577419e+01 1.92e-08 1.69e-06 -11.0 1.30e-04    -  1.00e+00 1.00e+00h  1
 138  2.6577419e+01 3.45e-11 1.39e-05 -11.0 1.26e-04    -  1.00e+00 1.00e+00H  1
 139  2.6577419e+01 2.22e-08 5.64e-07 -11.0 1.59e-04    -  1.00e+00 1.00e+00h  1
iter    objective    inf_pr   inf_du lg(mu)  ||d||  lg(rg) alpha_du alpha_pr  ls
 140  2.6577419e+01 1.37e-09 1.95e-06 -11.0 3.32e-05    -  1.00e+00 1.00e+00h  1
 141  2.6577419e+01 1.91e-09 8.44e-07 -11.0 4.17e-05    -  1.00e+00 1.00e+00h  1
 142  2.6577419e+01 5.62e-12 6.35e-06 -11.0 5.35e-05    -  1.00e+00 1.00e+00H  1
 143  2.6577419e+01 2.21e-09 1.04e-06 -11.0 4.49e-05    -  1.00e+00 1.00e+00h  1
 144  2.6577419e+01 2.03e-10 2.17e-06 -11.0 1.87e-05    -  1.00e+00 1.00e+00h  1
 145  2.6577419e+01 7.75e-11 1.24e-07 -11.0 1.39e-05    -  1.00e+00 1.00e+00h  1
 146  2.6577419e+01 2.01e-13 5.89e-08 -11.0 8.98e-07    -  1.00e+00 1.00e+00h  1
 147  2.6577419e+01 7.13e-13 6.67e-08 -11.0 8.31e-07    -  1.00e+00 1.00e+00h  1
 148  2.6577419e+01 1.14e-13 5.40e-07 -11.0 2.27e-05    -  1.00e+00 1.00e+00H  1
 149  2.6577419e+01 4.15e-13 1.03e-06 -11.0 1.40e-05    -  1.00e+00 1.00e+00H  1
iter    objective    inf_pr   inf_du lg(mu)  ||d||  lg(rg) alpha_du alpha_pr  ls
 150  2.6577419e+01 2.02e-14 2.07e-06 -11.0 1.90e-05    -  1.00e+00 1.00e+00H  1
 151  2.6577419e+01 2.02e-14 2.07e-06 -11.0 2.47e-05    -  1.00e+00 1.46e-11h 37
 152  2.6577419e+01 2.02e-14 2.07e-06 -11.0 2.47e-05    -  1.00e+00 1.46e-11h 37
 153  2.6577419e+01 2.02e-14 2.07e-06 -11.0 2.47e-05    -  1.00e+00 7.28e-12h 38
 154  2.6577419e+01 2.18e-11 1.09e-06 -11.0 2.07e-06    -  1.00e+00 1.00e+00h  1
 155  2.6577419e+01 3.11e-13 8.75e-07 -11.0 1.39e-06    -  1.00e+00 1.00e+00h  1
 156  2.6577419e+01 5.72e-12 4.08e-08 -11.0 7.00e-06    -  1.00e+00 1.00e+00h  1
 157  2.6577419e+01 7.72e-14 3.23e-08 -11.0 3.24e-07    -  1.00e+00 1.00e+00h  1
 158  2.6577419e+01 5.34e-14 6.78e-08 -11.0 2.16e-06    -  1.00e+00 1.00e+00H  1
 159  2.6577419e+01 1.01e-13 2.71e-07 -11.0 5.10e-06    -  1.00e+00 1.00e+00H  1
iter    objective    inf_pr   inf_du lg(mu)  ||d||  lg(rg) alpha_du alpha_pr  ls
 160  2.6577419e+01 4.24e-12 1.24e-07 -11.0 3.56e-06    -  1.00e+00 1.00e+00h  1
 161  2.6577419e+01 1.37e-12 3.39e-07 -11.0 1.58e-06    -  1.00e+00 1.00e+00h  1
 162  2.6577419e+01 1.15e-12 4.43e-08 -11.0 7.91e-07    -  1.00e+00 1.00e+00h  1
 163  2.6577419e+01 1.36e-13 2.05e-08 -11.0 3.74e-07    -  1.00e+00 1.00e+00h  1
 164  2.6577419e+01 4.22e-14 9.29e-08 -11.0 2.51e-06    -  1.00e+00 1.00e+00H  1
 165  2.6577419e+01 3.69e-14 5.57e-07 -11.0 1.62e-05    -  1.00e+00 1.00e+00H  1
 166  2.6577419e+01 3.77e-14 5.57e-07 -11.0 1.31e-05    -  1.00e+00 1.16e-10h 34

Number of Iterations....: 166

                                   (scaled)                 (unscaled)
Objective...............:   2.6577419460558918e+01    2.6577419460558918e+01
Dual infeasibility......:   5.5714498146012697e-07    5.5714498146012697e-07
Constraint violation....:   3.7723564201858245e-14    3.7723564201858245e-14
Variable bound violation:   0.0000000000000000e+00    0.0000000000000000e+00
Complementarity.........:   1.0000028710308602e-11    1.0000028710308602e-11
Overall NLP error.......:   5.5714498146012697e-07    5.5714498146012697e-07


Number of objective function evaluations             = 591
Number of objective gradient evaluations             = 168
Number of equality constraint evaluations            = 591
Number of inequality constraint evaluations          = 0
Number of equality constraint Jacobian evaluations   = 168
Number of inequality constraint Jacobian evaluations = 0
Number of Lagrangian Hessian evaluations             = 0
Total seconds in IPOPT                               = 399.922

EXIT: Solved To Acceptable Level.
